<?xml version = "1.0" encoding="UTF-8" standalone="yes"?>
<CPLEXSolution version="1.2">
 <header
   problemName="IloCplex"
   solutionName="p0"
   solutionIndex="-1"
   objectiveValue="0"
   solutionTypeValue="3"
   solutionTypeString="primal"
   solutionStatusValue="127"
   solutionStatusString="integer feasible solution"
   solutionMethodString="mip"
   primalFeasible="0"
   dualFeasible="0"
   writeLevel="3"/>
 <quality
   epInt="1.0000000000000001e-05"
   epRHS="9.9999999999999995e-07"
   maxIntInfeas="0"
   maxPrimalInfeas="0"
   maxX="1"
   maxSlack="1"/>
 <variables>
  <variable name="x0_64" index="144" value="1"/>
  <variable name="x1_9" index="217" value="1"/>
  <variable name="x2_6" index="342" value="1"/>
  <variable name="x3_11" index="475" value="1"/>
  <variable name="x4_0" index="592" value="1"/>
  <variable name="x5_21" index="741" value="1"/>
  <variable name="x6_2" index="850" value="1"/>
  <variable name="x7_23" index="999" value="1"/>
  <variable name="x8_12" index="1116" value="1"/>
  <variable name="x9_73" index="1305" value="1"/>
  <variable name="x10_8" index="1368" value="1"/>
  <variable name="x11_15" index="1503" value="1"/>
  <variable name="x12_76" index="1692" value="1"/>
  <variable name="x13_5" index="1749" value="1"/>
  <variable name="x14_78" index="1950" value="1"/>
  <variable name="x15_7" index="2007" value="1"/>
  <variable name="x16_18" index="2146" value="1"/>
  <variable name="x17_49" index="2305" value="1"/>
  <variable name="x18_26" index="2410" value="1"/>
  <variable name="x19_27" index="2539" value="1"/>
  <variable name="x20_52" index="2692" value="1"/>
  <variable name="x21_17" index="2785" value="1"/>
  <variable name="x22_86" index="2982" value="1"/>
  <variable name="x23_19" index="3043" value="1"/>
  <variable name="x24_28" index="3180" value="1"/>
  <variable name="x25_24" index="3304" value="1"/>
  <variable name="x26_30" index="3438" value="1"/>
  <variable name="x27_31" index="3567" value="1"/>
  <variable name="x28_60" index="3724" value="1"/>
  <variable name="x29_13" index="3805" value="1"/>
  <variable name="x30_22" index="3942" value="1"/>
  <variable name="x31_63" index="4111" value="1"/>
  <variable name="x32_36" index="4212" value="1"/>
  <variable name="x33_97" index="4401" value="1"/>
  <variable name="x34_50" index="4482" value="1"/>
  <variable name="x35_3" index="4563" value="1"/>
  <variable name="x36_38" index="4726" value="1"/>
  <variable name="x37_39" index="4855" value="1"/>
  <variable name="x38_34" index="4978" value="1"/>
  <variable name="x39_47" index="5119" value="1"/>
  <variable name="x40_104" index="5304" value="1"/>
  <variable name="x41_43" index="5371" value="1"/>
  <variable name="x42_40" index="5496" value="1"/>
  <variable name="x43_107" index="5691" value="1"/>
  <variable name="x44_46" index="5758" value="1"/>
  <variable name="x45_37" index="5877" value="1"/>
  <variable name="x46_44" index="6012" value="1"/>
  <variable name="x47_111" index="6207" value="1"/>
  <variable name="x48_32" index="6256" value="1"/>
  <variable name="x49_33" index="6385" value="1"/>
  <variable name="x50_48" index="6528" value="1"/>
  <variable name="x51_35" index="6643" value="1"/>
  <variable name="x52_20" index="6756" value="1"/>
  <variable name="x53_55" index="6919" value="1"/>
  <variable name="x54_62" index="7054" value="1"/>
  <variable name="x55_119" index="7239" value="1"/>
  <variable name="x56_58" index="7306" value="1"/>
  <variable name="x57_25" index="7401" value="1"/>
  <variable name="x58_42" index="7546" value="1"/>
  <variable name="x59_57" index="7689" value="1"/>
  <variable name="x60_61" index="7821" value="1"/>
  <variable name="x61_29" index="7917" value="1"/>
  <variable name="x62_54" index="8070" value="1"/>
  <variable name="x63_59" index="8203" value="1"/>
  <variable name="x64_65" index="8337" value="1"/>
  <variable name="x65_1" index="8401" value="1"/>
  <variable name="x66_74" index="8602" value="1"/>
  <variable name="x67_66" index="8722" value="1"/>
  <variable name="x68_4" index="8788" value="1"/>
  <variable name="x69_85" index="8997" value="1"/>
  <variable name="x70_71" index="9111" value="1"/>
  <variable name="x71_70" index="9238" value="1"/>
  <variable name="x72_88" index="9384" value="1"/>
  <variable name="x73_105" index="9529" value="1"/>
  <variable name="x74_10" index="9562" value="1"/>
  <variable name="x75_79" index="9759" value="1"/>
  <variable name="x76_77" index="9885" value="1"/>
  <variable name="x77_93" index="10029" value="1"/>
  <variable name="x78_14" index="10078" value="1"/>
  <variable name="x79_75" index="10267" value="1"/>
  <variable name="x80_16" index="10336" value="1"/>
  <variable name="x81_80" index="10528" value="1"/>
  <variable name="x82_83" index="10659" value="1"/>
  <variable name="x83_67" index="10771" value="1"/>
  <variable name="x84_68" index="10900" value="1"/>
  <variable name="x85_69" index="11029" value="1"/>
  <variable name="x86_82" index="11170" value="1"/>
  <variable name="x87_95" index="11311" value="1"/>
  <variable name="x88_72" index="11416" value="1"/>
  <variable name="x89_81" index="11553" value="1"/>
  <variable name="x90_94" index="11694" value="1"/>
  <variable name="x91_89" index="11817" value="1"/>
  <variable name="x92_84" index="11940" value="1"/>
  <variable name="x93_92" index="12076" value="1"/>
  <variable name="x94_90" index="12202" value="1"/>
  <variable name="x95_87" index="12327" value="1"/>
  <variable name="x96_98" index="12466" value="1"/>
  <variable name="x97_101" index="12597" value="1"/>
  <variable name="x98_106" index="12730" value="1"/>
  <variable name="x99_115" index="12867" value="1"/>
  <variable name="x100_96" index="12976" value="1"/>
  <variable name="x101_100" index="13108" value="1"/>
  <variable name="x102_118" index="13254" value="1"/>
  <variable name="x103_102" index="13366" value="1"/>
  <variable name="x104_120" index="13512" value="1"/>
  <variable name="x105_41" index="13561" value="1"/>
  <variable name="x106_110" index="13758" value="1"/>
  <variable name="x107_99" index="13875" value="1"/>
  <variable name="x108_124" index="14028" value="1"/>
  <variable name="x109_45" index="14077" value="1"/>
  <variable name="x110_108" index="14268" value="1"/>
  <variable name="x111_103" index="14391" value="1"/>
  <variable name="x112_114" index="14530" value="1"/>
  <variable name="x113_121" index="14665" value="1"/>
  <variable name="x114_112" index="14784" value="1"/>
  <variable name="x115_51" index="14851" value="1"/>
  <variable name="x116_117" index="15045" value="1"/>
  <variable name="x117_53" index="15109" value="1"/>
  <variable name="x118_116" index="15300" value="1"/>
  <variable name="x119_127" index="15439" value="1"/>
  <variable name="x120_56" index="15496" value="1"/>
  <variable name="x121_113" index="15681" value="1"/>
  <variable name="x122_126" index="15822" value="1"/>
  <variable name="x123_91" index="15915" value="1"/>
  <variable name="x124_125" index="16077" value="1"/>
  <variable name="x125_109" index="16189" value="1"/>
  <variable name="x126_122" index="16330" value="1"/>
  <variable name="x127_123" index="16459" value="1"/>
 </variables>
</CPLEXSolution>
